(set-info :smt-lib-version 2.6)
(set-logic QF_SLIA)
(declare-const x String)

;(assert (str.in_re x (re.parse "(_*a_*){25}")))
;(assert (str.in_re x (re.parse "(_*b_*){25}")))
;(assert (<= (str.len x) 50))
;(assert (str.in_re x (re.parse "(_*a_*){50}")))
;(assert (str.in_re x (re.parse "(_*b_*){50}")))
(assert (str.in_re x (re.parse "(_*a_*){100}")))
(assert (str.in_re x (re.parse "(_*b_*){100}")))
(assert (<= (str.len x) 200))
;(assert (<= (str.len x) 100))
;(assert (<= (str.len x) 20))
;(assert (<= (str.len x) 10))
;(assert (<= (str.len x) 25))
(check-sat)